src/bayesian/experiments
p cnf 7 15
c weights 1.0 1.0 0.2 0.8 1.0 1.0 0.3 1.0 0.7 1.0 0.0 1.0 1.0 1.0

c stress(a)
1 -2 0
-1 2 0

c A1 | stress(a)
4 -1 -3 0
-4 1 0
-4 3 0

c -A1 | stress(a)
5 -1 3 0
-5 1 0
-5 -3 0

c A1 | -stress(a)
6 1 -3 0
-6 -1 0
-6 3 0

c A1 | -stress(a)
7 1 3 0
-7 -1 0
-7 -3 0

3 0