src/bayesian/experiments.cnf
p cnf 7 14
c weights 1.0 1.0 0.2 0.8 1.0 1.0 0.3 1.0 0.7 1.0 0.0 1.0 1.0 1.0

c---------- A
1 -2 0
-1 2 0

c---------- B | A
4 -3 -1 0
-4 3 0
-4 1 0

c---------- -B | A
5 3 -1 0
-5 -3 0
-5 1 0

c---------- B | -A
6 -3 1 0
-6 3 0
-6 -1 0

c---------- -B | -A
7 3 1 0
-7 -3 0
-7 -1 0

3 0